Welcome to the CBC MILP Solver 
Version: Trunk
Build Date: Apr 16 2020 

Starting solution of the Linear programming relaxation problem using Primal Simplex

Using Python-MIP package version 1.8.1
Machines:  3 Jobs:  3
Order: 
Job  0 : machine 1 ( 7 ) machine 2 ( 7 ) machine 0 ( 1 ) 
Job  1 : machine 1 ( 4 ) machine 0 ( 3 ) machine 2 ( 7 ) 
Job  2 : machine 1 ( 7 ) machine 2 ( 6 ) machine 0 ( 2 ) 
K:  33
Job  0 , e: machine  0 ( 14 ) machine  1 ( 0 ) machine  2 ( 7 ) 
Job  1 , e: machine  0 ( 4 ) machine  1 ( 0 ) machine  2 ( 7 ) 
Job  2 , e: machine  0 ( 13 ) machine  1 ( 0 ) machine  2 ( 7 ) 
Job  0 , f: machine  0 ( 0 ) machine  1 ( 8 ) machine  2 ( 1 ) 
Job  1 , f: machine  0 ( 7 ) machine  1 ( 10 ) machine  2 ( 0 ) 
Job  2 , f: machine  0 ( 0 ) machine  1 ( 8 ) machine  2 ( 2 ) 
EST and LST:
Job: 0 Machine: 0 EST: 14 LST: 32
Job: 0 Machine: 1 EST: 0 LST: 18
Job: 0 Machine: 2 EST: 7 LST: 25
Job: 1 Machine: 0 EST: 4 LST: 23
Job: 1 Machine: 1 EST: 0 LST: 19
Job: 1 Machine: 2 EST: 7 LST: 26
Job: 2 Machine: 0 EST: 13 LST: 31
Job: 2 Machine: 1 EST: 0 LST: 18
Job: 2 Machine: 2 EST: 7 LST: 25
Order:
Job: 0 Machine: 0 = 2 
Job: 0 Machine: 1 = 0 
Job: 0 Machine: 2 = 1 
Job: 1 Machine: 0 = 1 
Job: 1 Machine: 1 = 0 
Job: 1 Machine: 2 = 2 
Job: 2 Machine: 0 = 2 
Job: 2 Machine: 1 = 0 
Job: 2 Machine: 2 = 1 
Distances:
Job 0, Machine 1 -> Machine 2: distance 7
Job 0, Machine 1 -> Machine 0: distance 14
Job 0, Machine 2 -> Machine 0: distance 7
Job 1, Machine 1 -> Machine 0: distance 4
Job 1, Machine 1 -> Machine 2: distance 7
Job 1, Machine 0 -> Machine 2: distance 3
Job 2, Machine 1 -> Machine 2: distance 7
Job 2, Machine 1 -> Machine 0: distance 13
Job 2, Machine 2 -> Machine 0: distance 6
McCormic linearization
14.0 13.0 2
0.0 0.0 4
0.0 0.0 7
0.0 0.0 7
7.0 7.0 7
7.0 7.0 6
[(0, 1), (0, 0), (0, 2), (2, 1), (2, 0), (1, 1)]
obj:  0.0
solutions:  1
+ 0.14285714285714285x(0,1) + 0.14285714285714285x(2,1) 
C:  18.5
x(0,0) = 17.50	 x(0,1) = 3.50	 x(0,2) = 10.50	 
x(1,0) = 8.50	 x(1,1) = 4.50	 x(1,2) = 11.50	 
x(2,0) = 16.50	 x(2,1) = 3.50	 x(2,2) = 10.50	 
y(0,1,0) = 0.00	 y(1,0,0) = 1.00	 
y(0,2,0) = 0.90	 y(2,0,0) = 0.10	 
y(1,2,0) = 0.59	 y(2,1,0) = 0.41	 
y(0,1,1) = 0.22	 y(1,0,1) = 0.78	 
y(0,2,1) = 0.50	 y(2,0,1) = 0.50	 
y(1,2,1) = 0.36	 y(2,1,1) = 0.64	 
y(0,1,2) = 0.50	 y(1,0,2) = 0.50	 
y(0,2,2) = 0.42	 y(2,0,2) = 0.58	 
y(1,2,2) = 0.49	 y(2,1,2) = 0.51	 
17.5 16.5 2
3.5000000000000018 3.499999999999996 7
4.499999999999999 3.499999999999996 7
11.5 10.499999999999998 6
obj:  0.6380952380952379
solutions:  1
+ 0.06666666666666668x(0,1) + 0.06666666666666668x(2,1) + 0.038095238095238085x(1,1) 
[(0, 1), (0, 0), (0, 2), (2, 1), (2, 0), (1, 1)]
cliques:  1 mip: 32
C:  21.546296296296294
x(0,0) = 20.55	 x(0,1) = 6.55	 x(0,2) = 13.55	 
x(1,0) = 10.05	 x(1,1) = 6.05	 x(1,2) = 13.05	 
x(2,0) = 18.55	 x(2,1) = 5.00	 x(2,2) = 12.00	 
y(0,1,0) = 0.00	 y(1,0,0) = 1.00	 
y(0,2,0) = 0.00	 y(2,0,0) = 1.00	 
y(1,2,0) = 0.53	 y(2,1,0) = 0.47	 
y(0,1,1) = 0.70	 y(1,0,1) = 0.30	 
y(0,2,1) = 0.22	 y(2,0,1) = 0.78	 
y(1,2,1) = 0.24	 y(2,1,1) = 0.76	 
y(0,1,2) = 0.25	 y(1,0,2) = 0.75	 
y(0,2,2) = 0.19	 y(2,0,2) = 0.81	 
y(1,2,2) = 0.69	 y(2,1,2) = 0.31	 
6.546296296296299 6.046296296296299 4
6.546296296296299 4.998677248677243 7
6.046296296296299 4.998677248677243 7
13.54629629629629 13.046296296296296 7
13.54629629629629 11.998677248677247 6
13.046296296296296 11.998677248677247 6
obj:  0.9455685408066361
solutions:  1
+ 0.025641025641025657x(1,2) + 0.021978021978021987x(2,2) + 0.025641025641025637x(0,2) 
[(0, 1), (1, 2), (2, 1), (1, 1), (2, 2), (0, 2)]
cliques:  1 mip: 65
C:  22.836784409256843
x(0,0) = 21.84	 x(0,1) = 7.84	 x(0,2) = 14.84	 
x(1,0) = 12.84	 x(1,1) = 3.84	 x(1,2) = 15.84	 
x(2,0) = 19.84	 x(2,1) = 4.97	 x(2,2) = 11.97	 
y(0,1,0) = 0.00	 y(1,0,0) = 1.00	 
y(0,2,0) = 0.00	 y(2,0,0) = 1.00	 
y(1,2,0) = 0.63	 y(2,1,0) = 0.37	 
y(0,1,1) = 0.00	 y(1,0,1) = 1.00	 
y(0,2,1) = 0.61	 y(2,0,1) = 0.39	 
y(1,2,1) = 0.64	 y(2,1,1) = 0.36	 
y(0,1,2) = 0.46	 y(1,0,2) = 0.54	 
y(0,2,2) = 0.52	 y(2,0,2) = 0.48	 
y(1,2,2) = 0.54	 y(2,1,2) = 0.46	 
7.836784409256846 3.836784409258375 4
7.836784409256846 4.970767356881223 7
14.836784409256845 11.97076735688122 6
15.836784409256843 11.97076735688122 6
obj:  1.0
erro
[(0, 1), (1, 2), (2, 1), (1, 1), (2, 2), (0, 2)]
cliques:  0 mip: 56
C:  24.1919988560154
x(0,0) = 23.19	 x(0,1) = 8.71	 x(0,2) = 15.71	 
x(1,0) = 14.19	 x(1,1) = 4.93	 x(1,2) = 17.19	 
x(2,0) = 17.40	 x(2,1) = 3.47	 x(2,2) = 11.40	 
y(0,1,0) = 0.00	 y(1,0,0) = 1.00	 
y(0,2,0) = 0.00	 y(2,0,0) = 1.00	 
y(1,2,0) = 0.37	 y(2,1,0) = 0.63	 
y(0,1,1) = 0.08	 y(1,0,1) = 0.92	 
y(0,2,1) = 0.07	 y(2,0,1) = 0.93	 
y(1,2,1) = 0.22	 y(2,1,1) = 0.78	 
y(0,1,2) = 0.78	 y(1,0,2) = 0.22	 
y(0,2,2) = 0.07	 y(2,0,2) = 0.93	 
y(1,2,2) = 0.22	 y(2,1,2) = 0.78	 
8.710985465611374 4.93056495486724 4
8.710985465611374 3.471548845893057 7
4.93056495486724 3.471548845893057 7
15.710985465611373 11.401126310681809 6
17.191998856015395 11.401126310681809 6
obj:  0.9999999999999998
erro
[(0, 1), (1, 2), (2, 1), (1, 1), (2, 2), (0, 2)]
cliques:  0 mip: 85
C:  25.0
x(0,0) = 24.00	 x(0,1) = 4.46	 x(0,2) = 13.67	 
x(1,0) = 15.00	 x(1,1) = 10.19	 x(1,2) = 18.00	 
x(2,0) = 17.72	 x(2,1) = 4.72	 x(2,2) = 11.72	 
y(0,1,0) = 0.00	 y(1,0,0) = 1.00	 
y(0,2,0) = 0.00	 y(2,0,0) = 1.00	 
y(1,2,0) = 0.16	 y(2,1,0) = 0.84	 
y(0,1,1) = 0.92	 y(1,0,1) = 0.08	 
y(0,2,1) = 0.43	 y(2,0,1) = 0.57	 
y(1,2,1) = 0.17	 y(2,1,1) = 0.83	 
y(0,1,2) = 0.89	 y(1,0,2) = 0.11	 
y(0,2,2) = 0.17	 y(2,0,2) = 0.83	 
y(1,2,2) = 0.11	 y(2,1,2) = 0.89	 
10.190871911499253 4.7179701934940095 7
obj:  0.9999999999999998
erro
[(0, 1), (0, 2), (2, 1), (2, 0), (1, 0), (1, 1)]
cliques:  0 mip: 71
C:  24.999999999999996
x(0,0) = 24.00	 x(0,1) = 4.27	 x(0,2) = 12.12	 
x(1,0) = 15.00	 x(1,1) = 10.64	 x(1,2) = 18.00	 
x(2,0) = 22.00	 x(2,1) = 5.22	 x(2,2) = 12.22	 
y(0,1,0) = 0.00	 y(1,0,0) = 1.00	 
y(0,2,0) = 0.00	 y(2,0,0) = 1.00	 
y(1,2,0) = 0.83	 y(2,1,0) = 0.17	 
y(0,1,1) = 0.96	 y(1,0,1) = 0.04	 
y(0,2,1) = 0.60	 y(2,0,1) = 0.40	 
y(1,2,1) = 0.59	 y(2,1,1) = 0.41	 
y(0,1,2) = 0.96	 y(1,0,2) = 0.04	 
y(0,2,2) = 0.65	 y(2,0,2) = 0.35	 
y(1,2,2) = 0.04	 y(2,1,2) = 0.96	 
10.642708610648057 5.2233071183449535 7
17.999999999999993 12.223307118344954 6
obj:  1.0381882291914717
erro
[(0, 1), (1, 2), (2, 1), (1, 1), (2, 2), (0, 2)]
cliques:  0 mip: 53
C:  24.999999999999996
x(0,0) = 24.00	 x(0,1) = 7.08	 x(0,2) = 17.00	 
x(1,0) = 15.00	 x(1,1) = 6.89	 x(1,2) = 18.00	 
x(2,0) = 18.00	 x(2,1) = 3.98	 x(2,2) = 10.98	 
y(0,1,0) = 0.00	 y(1,0,0) = 1.00	 
y(0,2,0) = 0.00	 y(2,0,0) = 1.00	 
y(1,2,0) = 1.00	 y(2,1,0) = 0.00	 
y(0,1,1) = 0.49	 y(1,0,1) = 0.51	 
y(0,2,1) = 0.19	 y(2,0,1) = 0.81	 
y(1,2,1) = 0.55	 y(2,1,1) = 0.45	 
y(0,1,2) = 0.49	 y(1,0,2) = 0.51	 
y(0,2,2) = 0.17	 y(2,0,2) = 0.83	 
y(1,2,2) = 0.46	 y(2,1,2) = 0.54	 
7.082577589374566 6.889896547500829 4
7.082577589374566 3.9803386691963887 7
6.889896547500829 3.9803386691963887 7
obj:  1.0
erro
[(0, 1), (0, 2), (2, 1), (2, 0), (1, 0), (1, 1)]
cliques:  0 mip: 47
C:  24.999999999999996
x(0,0) = 23.99	 x(0,1) = 7.81	 x(0,2) = 16.99	 
x(1,0) = 15.00	 x(1,1) = 6.34	 x(1,2) = 18.00	 
x(2,0) = 18.09	 x(2,1) = 3.57	 x(2,2) = 12.09	 
y(0,1,0) = 0.00	 y(1,0,0) = 1.00	 
y(0,2,0) = 0.00	 y(2,0,0) = 1.00	 
y(1,2,0) = 1.00	 y(2,1,0) = 0.00	 
y(0,1,1) = 0.37	 y(1,0,1) = 0.63	 
y(0,2,1) = 0.27	 y(2,0,1) = 0.73	 
y(1,2,1) = 0.65	 y(2,1,1) = 0.35	 
y(0,1,2) = 0.62	 y(1,0,2) = 0.38	 
y(0,2,2) = 0.05	 y(2,0,2) = 0.95	 
y(1,2,2) = 0.14	 y(2,1,2) = 0.86	 
7.805206893176132 6.336670987346527 4
7.805206893176132 3.573838256911565 7
6.336670987346527 3.573838256911565 7
16.99152602708236 12.086434523759866 6
18.0 12.086434523759866 6
obj:  1.0
erro
[(0, 1), (1, 2), (2, 1), (1, 1), (2, 2), (0, 2)]
cliques:  0 mip: 73
C:  25.000000000000004
x(0,0) = 23.51	 x(0,1) = 9.08	 x(0,2) = 16.51	 
x(1,0) = 15.00	 x(1,1) = 2.94	 x(1,2) = 18.00	 
x(2,0) = 23.00	 x(2,1) = 5.07	 x(2,2) = 12.91	 
y(0,1,0) = 0.00	 y(1,0,0) = 1.00	 
y(0,2,0) = 0.25	 y(2,0,0) = 0.75	 
y(1,2,0) = 0.79	 y(2,1,0) = 0.21	 
y(0,1,1) = 0.15	 y(1,0,1) = 0.85	 
y(0,2,1) = 0.21	 y(2,0,1) = 0.79	 
y(1,2,1) = 0.92	 y(2,1,1) = 0.08	 
y(0,1,2) = 0.33	 y(1,0,2) = 0.67	 
y(0,2,2) = 0.21	 y(2,0,2) = 0.79	 
y(1,2,2) = 0.28	 y(2,1,2) = 0.72	 
23.509803921568633 23.000000000000004 2
9.08056082304937 5.073467773534795 7
16.509803921568636 12.905433783800257 6
18.000000000000004 12.905433783800257 6
obj:  1.6283629730962155
erro
[(0, 1), (1, 2), (0, 0), (2, 1), (2, 0), (0, 2)]
cliques:  0 mip: 73
C:  25.000000000000004
x(0,0) = 23.88	 x(0,1) = 7.47	 x(0,2) = 15.09	 
x(1,0) = 13.67	 x(1,1) = 0.00	 x(1,2) = 16.67	 
x(2,0) = 23.00	 x(2,1) = 7.53	 x(2,2) = 14.53	 
y(0,1,0) = 0.00	 y(1,0,0) = 1.00	 
y(0,2,0) = 0.06	 y(2,0,0) = 0.94	 
y(1,2,0) = 0.76	 y(2,1,0) = 0.24	 
y(0,1,1) = 0.42	 y(1,0,1) = 0.58	 
y(0,2,1) = 0.49	 y(2,0,1) = 0.51	 
y(1,2,1) = 1.00	 y(2,1,1) = 0.00	 
y(0,1,2) = 0.78	 y(1,0,2) = 0.22	 
y(0,2,2) = 0.30	 y(2,0,2) = 0.70	 
y(1,2,2) = 0.51	 y(2,1,2) = 0.49	 
23.88235294117647 23.000000000000004 2
15.093029550071341 14.52631578947368 6
16.670469705615442 14.52631578947368 6
obj:  1.5125475836041322
erro
[(0, 1), (1, 2), (0, 0), (2, 1), (2, 0), (0, 2)]
cliques:  0 mip: 78
C:  24.999999999999996
x(0,0) = 24.00	 x(0,1) = 8.71	 x(0,2) = 16.17	 
x(1,0) = 9.73	 x(1,1) = 2.11	 x(1,2) = 12.73	 
x(2,0) = 22.00	 x(2,1) = 5.73	 x(2,2) = 13.39	 
y(0,1,0) = 0.00	 y(1,0,0) = 1.00	 
y(0,2,0) = -0.00	 y(2,0,0) = 1.00	 
y(1,2,0) = 0.67	 y(2,1,0) = 0.33	 
y(0,1,1) = 0.18	 y(1,0,1) = 0.82	 
y(0,2,1) = 0.29	 y(2,0,1) = 0.71	 
y(1,2,1) = 0.98	 y(2,1,1) = 0.02	 
y(0,1,2) = 0.32	 y(1,0,2) = 0.68	 
y(0,2,2) = 0.20	 y(2,0,2) = 0.80	 
y(1,2,2) = 0.28	 y(2,1,2) = 0.72	 
8.712722198940055 5.727718482392281 7
16.170990204167214 12.729929520114483 7
16.170990204167214 13.386860652601461 6
obj:  1.0352659413391232
erro
[(0, 1), (1, 2), (2, 1), (2, 2), (0, 2)]
cliques:  0 mip: 78
C:  25.0
x(0,0) = 24.00	 x(0,1) = 9.59	 x(0,2) = 16.76	 
x(1,0) = 8.05	 x(1,1) = 1.02	 x(1,2) = 11.05	 
x(2,0) = 22.00	 x(2,1) = 5.09	 x(2,2) = 13.05	 
y(0,1,0) = 0.00	 y(1,0,0) = 1.00	 
y(0,2,0) = -0.00	 y(2,0,0) = 1.00	 
y(1,2,0) = 0.65	 y(2,1,0) = 0.35	 
y(0,1,1) = 0.07	 y(1,0,1) = 0.93	 
y(0,2,1) = 0.21	 y(2,0,1) = 0.79	 
y(1,2,1) = 0.95	 y(2,1,1) = 0.05	 
y(0,1,2) = 0.12	 y(1,0,2) = 0.88	 
y(0,2,2) = 0.10	 y(2,0,2) = 0.90	 
y(1,2,2) = 0.81	 y(2,1,2) = 0.19	 
9.592571117264345 5.0926632328096 7
16.757559319111078 11.054279813380104 7
16.757559319111078 13.05285434542695 6
obj:  0.9999999999999998
erro
[(0, 1), (1, 2), (2, 1), (2, 2), (0, 2)]
cliques:  0 mip: 80
C:  25.000000000000004
x(0,0) = 19.70	 x(0,1) = 5.69	 x(0,2) = 12.70	 
x(1,0) = 13.01	 x(1,1) = 3.50	 x(1,2) = 16.01	 
x(2,0) = 22.24	 x(2,1) = 7.31	 x(2,2) = 15.42	 
y(0,1,0) = 0.00	 y(1,0,0) = 1.00	 
y(0,2,0) = 0.24	 y(2,0,0) = 0.76	 
y(1,2,0) = 0.90	 y(2,1,0) = 0.10	 
y(0,1,1) = 0.46	 y(1,0,1) = 0.54	 
y(0,2,1) = 0.64	 y(2,0,1) = 0.36	 
y(1,2,1) = 0.92	 y(2,1,1) = 0.08	 
y(0,1,2) = 0.71	 y(1,0,2) = 0.29	 
y(0,2,2) = 0.68	 y(2,0,2) = 0.32	 
y(1,2,2) = 0.68	 y(2,1,2) = 0.32	 
5.689015621256408 3.5009988116747857 4
16.011764721990712 15.419053695840896 6
obj:  0.9999999999999998
erro
[(0, 1), (1, 2), (2, 1), (1, 1), (2, 2), (0, 2)]
cliques:  0 mip: 91
C:  25.0
x(0,0) = 23.49	 x(0,1) = 6.45	 x(0,2) = 13.45	 
x(1,0) = 12.76	 x(1,1) = 3.24	 x(1,2) = 15.76	 
x(2,0) = 22.03	 x(2,1) = 7.08	 x(2,2) = 14.08	 
y(0,1,0) = 0.00	 y(1,0,0) = 1.00	 
y(0,2,0) = 0.03	 y(2,0,0) = 0.97	 
y(1,2,0) = 0.88	 y(2,1,0) = 0.12	 
y(0,1,1) = 0.40	 y(1,0,1) = 0.60	 
y(0,2,1) = 0.55	 y(2,0,1) = 0.45	 
y(1,2,1) = 0.94	 y(2,1,1) = 0.06	 
y(0,1,2) = 0.68	 y(1,0,2) = 0.32	 
y(0,2,2) = 0.58	 y(2,0,2) = 0.42	 
y(1,2,2) = 0.48	 y(2,1,2) = 0.52	 
23.49148794915327 22.028250669491488 2
6.4531558776836055 3.2377514662846956 4
15.763488665256912 14.083585317937256 6
obj:  1.0257923260427124
erro
[(0, 1), (0, 0), (0, 2), (2, 1), (2, 0), (1, 1)]
cliques:  0 mip: 90
C:  25.0
x(0,0) = 24.00	 x(0,1) = 6.65	 x(0,2) = 13.65	 
x(1,0) = 14.38	 x(1,1) = 3.60	 x(1,2) = 17.38	 
x(2,0) = 22.00	 x(2,1) = 6.68	 x(2,2) = 13.86	 
y(0,1,0) = 0.00	 y(1,0,0) = 1.00	 
y(0,2,0) = -0.00	 y(2,0,0) = 1.00	 
y(1,2,0) = 0.77	 y(2,1,0) = 0.23	 
y(0,1,1) = 0.41	 y(1,0,1) = 0.59	 
y(0,2,1) = 0.51	 y(2,0,1) = 0.49	 
y(1,2,1) = 0.89	 y(2,1,1) = 0.11	 
y(0,1,2) = 0.87	 y(1,0,2) = 0.13	 
y(0,2,2) = 0.73	 y(2,0,2) = 0.27	 
y(1,2,2) = 0.37	 y(2,1,2) = 0.63	 
6.645404244467728 3.6000005946965827 4
17.38187643960271 13.8619853260234 6
obj:  1.0254154483726778
erro
[(0, 1), (1, 2), (2, 1), (1, 1), (2, 2), (0, 2)]
cliques:  0 mip: 0
iterações: 15 cortes cliques encontrados: 3 mip: 1000 objective:  25.0
Coin0506I Presolve 65 (-61) rows, 39 (-25) columns and 202 (-86) elements
Clp1000I sum of infeasibilities 3.24924e-06 - average 4.99884e-08, 0 fixed columns
Coin0506I Presolve 65 (0) rows, 39 (0) columns and 202 (0) elements
Clp0029I End of values pass after 39 iterations
Clp0000I Optimal - objective value 15
Clp0000I Optimal - objective value 15
Coin0511I After Postsolve, objective 15, infeasibilities - dual 0 (0), primal 0 (0)
Clp0000I Optimal - objective value 15
Clp0000I Optimal - objective value 15
Clp0000I Optimal - objective value 15
Coin0511I After Postsolve, objective 15, infeasibilities - dual 0 (0), primal 0 (0)
Clp0032I Optimal objective 15 - 0 iterations time 0.002, Presolve 0.00, Idiot 0.00
Coin3009W Conflict graph built in 0.000 seconds, density: 0.147%
